solution status: time limit reached
objective value:                         102606.64649
y#1                                                 1 	(obj:5700)
y#2                                                 1 	(obj:5700)
y#3                                                 1 	(obj:5700)
y#6                                                 1 	(obj:5700)
y#7                                                 1 	(obj:5700)
y#8                                                 1 	(obj:5700)
y#13                                                1 	(obj:5700)
y#15                                                1 	(obj:5700)
y#17                                                1 	(obj:5700)
y#22                                                1 	(obj:5700)
y#23                                                1 	(obj:5700)
y#32                                                1 	(obj:5700)
y#33                                                1 	(obj:5700)
y#35                                                1 	(obj:5700)
y#39                                                1 	(obj:5700)
y#42                                                1 	(obj:5700)
y#44                                                1 	(obj:5700)
y#45                                                1 	(obj:5700)
x#1#42                                              1 	(obj:0.00663)
x#2#35                                              1 	(obj:0.02329)
x#3#2                                               1 	(obj:0.02108)
x#4#15                                              1 	(obj:0.01547)
x#5#39                                              1 	(obj:0.017)
x#6#1                                               1 	(obj:0.04896)
x#7#17                                              1 	(obj:0.00697)
x#8#45                                              1 	(obj:0.01394)
x#9#23                                              1 	(obj:0.02312)
x#10#13                                             1 	(obj:0.06256)
x#11#22                                             1 	(obj:0.05729)
x#12#23                                             1 	(obj:0.02618)
x#13#3                                              1 	(obj:0.00986)
x#14#44                                             1 	(obj:0.01054)
x#15#3                                              1 	(obj:0.01343)
x#16#13                                             1 	(obj:0.01632)
x#17#13                                             1 	(obj:0.08296)
x#18#15                                             1 	(obj:0.0204)
x#19#42                                             1 	(obj:0.04471)
x#20#35                                             1 	(obj:0.03247)
x#21#6                                              1 	(obj:0.17663)
x#22#6                                              1 	(obj:0.00646)
x#23#22                                             1 	(obj:0.02907)
x#24#32                                             1 	(obj:0.03672)
x#25#22                                             1 	(obj:0.06936)
x#26#22                                             1 	(obj:0.03383)
x#27#35                                             1 	(obj:0.05882)
x#28#13                                             1 	(obj:0.04284)
x#29#23                                             1 	(obj:0.00731)
x#30#45                                             1 	(obj:0.03213)
x#31#8                                              1 	(obj:0.01394)
x#32#33                                             1 	(obj:0.10455)
x#33#8                                              1 	(obj:0.01632)
x#34#6                                              1 	(obj:0.02805)
x#35#45                                             1 	(obj:0.01649)
x#36#44                                             1 	(obj:0.03281)
x#37#39                                             1 	(obj:0.0221)
x#38#8                                              1 	(obj:0.01445)
x#39#33                                             1 	(obj:0.00986)
x#40#35                                             1 	(obj:0.10268)
x#41#7                                              1 	(obj:0.04539)
x#42#2                                              1 	(obj:0.03196)
x#43#3                                              1 	(obj:0.04233)
x#44#7                                              1 	(obj:0.06783)
x#45#42                                             1 	(obj:0.06511)
x#46#3                                              1 	(obj:0.11628)
x#47#39                                             1 	(obj:0.00867)
x#48#35                                             1 	(obj:0.07293)
x#49#13                                             1 	(obj:0.12614)
x#50#42                                             1 	(obj:0.03332)
x#51#33                                             1 	(obj:0.1972)
x#52#35                                             1 	(obj:0.11713)
x#53#44                                             1 	(obj:0.01581)
x#54#15                                             1 	(obj:0.01156)
x#55#6                                              1 	(obj:0.01887)
x#56#17                                             1 	(obj:0.02465)
x#57#23                                             1 	(obj:0.02278)
x#58#1                                              1 	(obj:0.01054)
x#59#23                                             1 	(obj:0.09384)
x#60#22                                             1 	(obj:0.05814)
x#61#45                                             1 	(obj:0.04811)
x#62#32                                             1 	(obj:0.0204)
x#63#2                                              1 	(obj:0.04148)
x#64#7                                              1 	(obj:0.02686)
x#65#2                                              1 	(obj:0.01241)
x#66#45                                             1 	(obj:0.02601)
x#67#6                                              1 	(obj:0.0255)
x#68#3                                              1 	(obj:0.02822)
x#69#8                                              1 	(obj:0.00544)
x#70#32                                             1 	(obj:0.03417)
x#71#45                                             1 	(obj:0.00306)
x#72#13                                             1 	(obj:0.02652)
x#73#7                                              1 	(obj:0.05049)
x#74#15                                             1 	(obj:0.01088)
x#75#45                                             1 	(obj:0.01122)
x#76#39                                             1 	(obj:0.00306)
x#77#39                                             1 	(obj:0.01037)
x#78#8                                              1 	(obj:0.11305)
x#79#3                                              1 	(obj:0.03519)
x#80#3                                              1 	(obj:0.00969)
x#81#42                                             1 	(obj:0.02669)
x#82#13                                             1 	(obj:0.06426)
x#83#3                                              1 	(obj:0.01564)
x#84#35                                             1 	(obj:0.03842)
x#85#17                                             1 	(obj:0.01768)
x#86#33                                             1 	(obj:0.03077)
x#87#35                                             1 	(obj:0.04828)
x#88#42                                             1 	(obj:0.01632)
x#89#22                                             1 	(obj:0.0374)
x#90#32                                             1 	(obj:0.03859)
x#91#44                                             1 	(obj:0.03179)
x#92#22                                             1 	(obj:0.02329)
x#93#17                                             1 	(obj:0.0102)
x#94#1                                              1 	(obj:0.00629)
x#95#23                                             1 	(obj:0.03553)
x#96#7                                              1 	(obj:0.01513)
x#97#39                                             1 	(obj:0.06545)
x#98#44                                             1 	(obj:0.01292)
x#99#22                                             1 	(obj:0.02788)
x#100#7                                             1 	(obj:0.02142)
x#101#1                                             1 	(obj:0.01921)
x#102#33                                            1 	(obj:0.04573)
x#103#8                                             1 	(obj:0.03264)
x#104#22                                            1 	(obj:0.03213)
x#105#1                                             1 	(obj:0.0204)
x#106#39                                            1 	(obj:0.00493)
x#107#2                                             1 	(obj:0.017)
x#108#44                                            1 	(obj:0.02057)
x#109#7                                             1 	(obj:0.0136)
x#110#1                                             1 	(obj:0.00612)
x#111#13                                            1 	(obj:0.0187)
x#112#35                                            1 	(obj:0.01785)
x#113#32                                            1 	(obj:0.03791)
x#114#39                                            1 	(obj:0.00374)
x#115#35                                            1 	(obj:0.01887)
x#116#45                                            1 	(obj:0.00765)
x#117#33                                            1 	(obj:0.02533)
x#118#22                                            1 	(obj:0.0697)
x#119#6                                             1 	(obj:0.05644)
x#120#6                                             1 	(obj:0.03655)
x#121#23                                            1 	(obj:0.00867)
x#122#7                                             1 	(obj:0.0153)
x#123#23                                            1 	(obj:0.0238)
x#124#44                                            1 	(obj:0.04148)
x#125#22                                            1 	(obj:0.05117)
x#126#17                                            1 	(obj:0.0102)
x#127#1                                             1 	(obj:0.0374)
x#128#17                                            1 	(obj:0.00935)
x#129#15                                            1 	(obj:0.01054)
x#130#32                                            1 	(obj:0.00238)
x#131#6                                             1 	(obj:0.12835)
x#132#33                                            1 	(obj:0.00612)
x#133#17                                            1 	(obj:0.01615)
x#134#44                                            1 	(obj:0.01394)
x#135#17                                            1 	(obj:0.00816)
x#136#32                                            1 	(obj:0.03349)
x#137#2                                             1 	(obj:0.01955)
x#138#32                                            1 	(obj:0.02652)
x#139#32                                            1 	(obj:0.01428)
x#140#1                                             1 	(obj:0.0102)
x#141#8                                             1 	(obj:0.01241)
x#142#33                                            1 	(obj:0.02278)
x#143#8                                             1 	(obj:0.04063)
x#144#33                                            1 	(obj:0.03587)
x#145#42                                            1 	(obj:0.02584)
x#146#15                                            1 	(obj:0.00799)
x#147#23                                            1 	(obj:0.00935)
x#148#45                                            1 	(obj:0.01122)
x#149#23                                            1 	(obj:0.00255)
x#150#1                                             1 	(obj:0.01445)
x#151#13                                            1 	(obj:0.03145)
x#152#7                                             1 	(obj:0.03468)
x#153#13                                            1 	(obj:0.02856)
x#154#17                                            1 	(obj:0.04029)
x#155#8                                             1 	(obj:0.00459)
x#156#39                                            1 	(obj:0.02176)
x#157#2                                             1 	(obj:0.04607)
x#158#6                                             1 	(obj:0.01802)
x#159#6                                             1 	(obj:0.0306)
x#160#8                                             1 	(obj:0.01037)
x#161#33                                            1 	(obj:0.13583)
x#162#33                                            1 	(obj:0.06222)
x#163#35                                            1 	(obj:0.0204)
x#164#23                                            1 	(obj:0.02856)
x#165#22                                            1 	(obj:0.06647)
x#166#15                                            1 	(obj:0.0204)
x#167#39                                            1 	(obj:0.0204)
x#168#44                                            1 	(obj:0.01462)
x#169#17                                            1 	(obj:0.01666)
x#170#3                                             1 	(obj:0.01547)
x#171#17                                            1 	(obj:0.0153)
x#172#1                                             1 	(obj:0.03128)
x#173#7                                             1 	(obj:0.04845)
x#174#3                                             1 	(obj:0.09027)
x#175#45                                            1 	(obj:0.05338)
x#176#3                                             1 	(obj:0.03383)
x#177#8                                             1 	(obj:0.00663)
x#178#17                                            1 	(obj:0.0323)
x#179#6                                             1 	(obj:0.14841)
x#180#7                                             1 	(obj:0.01343)
x#181#13                                            1 	(obj:0.02975)
x#182#32                                            1 	(obj:0.01122)
x#183#32                                            1 	(obj:0.11186)
x#184#2                                             1 	(obj:0.01326)
x#185#2                                             1 	(obj:0.01768)
x#186#42                                            1 	(obj:0.05763)
x#187#15                                            1 	(obj:0.0272)
x#188#42                                            1 	(obj:0.02074)
x#189#42                                            1 	(obj:0.04947)
x#190#44                                            1 	(obj:0.017)
x#191#39                                            1 	(obj:0.02074)
x#192#42                                            1 	(obj:0.05202)
x#193#15                                            1 	(obj:0.04726)
x#194#2                                             1 	(obj:0.02618)
x#195#15                                            1 	(obj:0.01649)
x#196#1                                             1 	(obj:0.03009)
x#197#45                                            1 	(obj:0.03094)
x#198#44                                            1 	(obj:0.00476)
x#199#15                                            1 	(obj:0.00476)
x#200#2                                             1 	(obj:0.02737)
